Route 1: 39 36 38 41 40 37 35 93
Route 2: 63 27 30 34 26 32 80
Route 3: 33 85 22 89
Route 4: 45 5 2 7 6 8 46 100
Route 5: 59 75 87 97 58
Route 6: 31 29 28 50 56
Route 7: 14 15 16 73 4 60
Route 8: 92 62 81 3 1 70
Route 9: 72 71 67 84 96 54 91
Route 10: 42 44 61 43 68
Route 11: 83 64 51 76 49 20 24
Route 12: 47 12 11 9 10 17 13
Route 13: 95 19 23 18 74 77
Route 14: 65 21 86 57 48 25
Route 15: 98 88 78 79 55
Route 16: 82 52 99 94 66
Route 17: 69 90 53
Vehicles: 17
Distance: 2149.74
